data/CVRPLIB/Vrp-Set-XML100/instances/XML100_1314_10.vrp
NAME : XML100_1314_10
COMMENT : Generated by Queiroga, Sadykov, Uchoa, and Vidal (2021)
TYPE : CVRP
DIMENSION : 101
EDGE_WEIGHT_TYPE : EUC_2D
CAPACITY : 12
NODE_COORD_SECTION
1    245  714 
2    164  871 
3    919  805 
4    425  929 
5    985  883 
6    969  745 
7    968  926 
8    643  166 
9    993  906 
10   912  595 
11   930  772 
12   136  676 
13   925  830 
14   608  749 
15   944  630 
16   544  912 
17   21   714 
18   520  850 
19   578  665 
20   939  752 
21   584  750 
22   887  701 
23   50   420 
24   781  882 
25   830  862 
26   925  778 
27   540  573 
28   657  886 
29   866  953 
30   854  774 
31   608  42  
32   415  487 
33   845  729 
34   980  884 
35   429  48  
36   455  772 
37   997  953 
38   968  627 
39   839  789 
40   606  544 
41   882  674 
42   857  850 
43   153  859 
44   368  58  
45   755  182 
46   959  874 
47   55   153 
48   421  280 
49   957  655 
50   746  819 
51   582  85  
52   775  197 
53   861  717 
54   185  148 
55   678  13  
56   170  551 
57   640  622 
58   18   901 
59   844  876 
60   61   33  
61   880  825 
62   619  816 
63   654  469 
64   905  943 
65   44   218 
66   76   133 
67   992  927 
68   632  705 
69   878  745 
70   708  724 
71   746  446 
72   150  184 
73   995  896 
74   764  956 
75   256  108 
76   982  937 
77   568  77  
78   64   179 
79   61   224 
80   593  406 
81   338  284 
82   199  733 
83   588  616 
84   585  246 
85   64   898 
86   907  810 
87   543  39  
88   945  796 
89   725  694 
90   526  551 
91   132  759 
92   671  24  
93   993  297 
94   917  921 
95   832  359 
96   728  67  
97   597  472 
98   689  748 
99   782  783 
100  95   95  
101  146  801 
DEMAND_SECTION
1    0   
2    1   
3    1   
4    1   
5    1   
6    1   
7    1   
8    1   
9    1   
10   1   
11   1   
12   1   
13   1   
14   1   
15   1   
16   1   
17   1   
18   1   
19   1   
20   1   
21   1   
22   1   
23   1   
24   1   
25   1   
26   1   
27   1   
28   1   
29   1   
30   1   
31   1   
32   1   
33   1   
34   1   
35   1   
36   1   
37   1   
38   1   
39   1   
40   1   
41   1   
42   1   
43   1   
44   1   
45   1   
46   1   
47   1   
48   1   
49   1   
50   1   
51   1   
52   1   
53   1   
54   1   
55   1   
56   1   
57   1   
58   1   
59   1   
60   1   
61   1   
62   1   
63   1   
64   1   
65   1   
66   1   
67   1   
68   1   
69   1   
70   1   
71   1   
72   1   
73   1   
74   1   
75   1   
76   1   
77   1   
78   1   
79   1   
80   1   
81   1   
82   1   
83   1   
84   1   
85   1   
86   1   
87   1   
88   1   
89   1   
90   1   
91   1   
92   1   
93   1   
94   1   
95   1   
96   1   
97   1   
98   1   
99   1   
100  1   
101  1   
DEPOT_SECTION
1
-1
EOF
