data/CVRPLIB/Vrp-Set-XML100/solutions/XML100_1314_10.sol
Route #1: 39 96 62 70 94 92 51 44 7 83 79 31
Route #2: 89 26 82 18 67 13 20 35
Route #3: 11 16 57 84 1 42 100 90 81
Route #4: 55 22 78 64 77 46 65 59 99 53 71
Route #5: 49 60 12 45 33 4 72 8 66 36 75 6
Route #6: 80 74 43 34 86 30 91 54 95 50 76 47
Route #7: 85 2 87 25 10 19 5 48 37 14 9 56
Route #8: 17 27 23 24 58 41 93 63 28 73 15 3
Route #9: 61 98 38 29 68 21 40 52 32 88 69 97
Cost 13687
